0 3795
2401 3625
4802 3512
7203 3442
9604 3400
12005 3362
14406 3330
16807 3310
19208 3285
21609 3271
24010 3260
26411 3251
28812 3213
31213 3175
33614 3164
36015 3159
38416 3157
50421 3149
52822 3146
55223 3144
86436 3133
88837 3131
91238 3127
93639 3122
96040 3119
108045 3117
261709 3114
264110 3109
266511 3108
